80 3160
1 2 93
1 3 110
1 4 98
1 5 168
1 6 19
1 7 52
1 8 74
1 9 159
1 10 66
1 11 184
1 12 22
1 13 162
1 14 133
1 15 97
1 16 10
1 17 86
1 18 50
1 19 108
1 20 167
1 21 15
1 22 231
1 23 208
1 24 39
1 25 71
1 26 9
1 27 203
1 28 201
1 29 4
1 30 85
1 31 101
1 32 231
1 33 220
1 34 81
1 35 113
1 36 194
1 37 53
1 38 35
1 39 57
1 40 55
1 41 104
1 42 188
1 43 101
1 44 69
1 45 160
1 46 49
1 47 196
1 48 182
1 49 220
1 50 209
1 51 12
1 52 211
1 53 177
1 54 173
1 55 212
1 56 17
1 57 211
1 58 69
1 59 153
1 60 179
1 61 219
1 62 183
1 63 137
1 64 11
1 65 221
1 66 100
1 67 123
1 68 190
1 69 188
1 70 128
1 71 233
1 72 35
1 73 114
1 74 191
1 75 124
1 76 159
1 77 32
1 78 63
1 79 10
1 80 215
2 3 106
2 4 44
2 5 218
2 6 21
2 7 195
2 8 85
2 9 186
2 10 139
2 11 169
2 12 88
2 13 48
2 14 122
2 15 71
2 16 237
2 17 193
2 18 104
2 19 126
2 20 137
2 21 116
2 22 107
2 23 126
2 24 154
2 25 162
2 26 102
2 27 183
2 28 52
2 29 97
2 30 112
2 31 67
2 32 202
2 33 198
2 34 76
2 35 157
2 36 218
2 37 198
2 38 147
2 39 9
2 40 21
2 41 215
2 42 28
2 43 153
2 44 46
2 45 69
2 46 4
2 47 125
2 48 127
2 49 225
2 50 228
2 51 44
2 52 3
2 53 201
2 54 77
2 55 102
2 56 25
2 57 172
2 58 232
2 59 47
2 60 84
2 61 173
2 62 235
2 63 140
2 64 73
2 65 99
2 66 29
2 67 28
2 68 170
2 69 73
2 70 79
2 71 166
2 72 51
2 73 193
2 74 80
2 75 134
2 76 231
2 77 99
2 78 110
2 79 229
2 80 63
3 4 5
3 5 43
3 6 39
3 7 123
3 8 209
3 9 227
3 10 182
3 11 85
3 12 127
3 13 56
3 14 109
3 15 107
3 16 111
3 17 118
3 18 122
3 19 221
3 20 94
3 21 19
3 22 68
3 23 133
3 24 22
3 25 229
3 26 53
3 27 116
3 28 18
3 29 230
3 30 110
3 31 85
3 32 236
3 33 29
3 34 38
3 35 131
3 36 212
3 37 105
3 38 227
3 39 0
3 40 233
3 41 152
3 42 25
3 43 206
3 44 213
3 45 134
3 46 151
3 47 104
3 48 3
3 49 29
3 50 56
3 51 89
3 52 155
3 53 4
3 54 164
3 55 83
3 56 152
3 57 179
3 58 170
3 59 189
3 60 81
3 61 70
3 62 231
3 63 114
3 64 109
3 65 59
3 66 131
3 67 4
3 68 109
3 69 130
3 70 183
3 71 93
3 72 14
3 73 151
3 74 58
3 75 191
3 76 42
3 77 204
3 78 68
3 79 7
3 80 82
4 5 55
4 6 4
4 7 50
4 8 155
4 9 217
4 10 109
4 11 58
4 12 72
4 13 173
4 14 35
4 15 218
4 16 233
4 17 30
4 18 180
4 19 154
4 20 115
4 21 161
4 22 218
4 23 3
4 24 130
4 25 71
4 26 108
4 27 169
4 28 232
4 29 44
4 30 57
4 31 215
4 32 14
4 33 220
4 34 203
4 35 91
4 36 35
4 37 162
4 38 158
4 39 224
4 40 34
4 41 167
4 42 82
4 43 208
4 44 31
4 45 184
4 46 26
4 47 41
4 48 205
4 49 45
4 50 11
4 51 107
4 52 4
4 53 111
4 54 175
4 55 52
4 56 53
4 57 138
4 58 194
4 59 33
4 60 162
4 61 99
4 62 175
4 63 105
4 64 50
4 65 63
4 66 239
4 67 93
4 68 82
4 69 11
4 70 228
4 71 172
4 72 168
4 73 219
4 74 213
4 75 182
4 76 160
4 77 18
4 78 63
4 79 74
4 80 3
5 6 78
5 7 9
5 8 81
5 9 87
5 10 206
5 11 125
5 12 173
5 13 180
5 14 110
5 15 139
5 16 56
5 17 16
5 18 168
5 19 175
5 20 132
5 21 55
5 22 88
5 23 162
5 24 14
5 25 124
5 26 128
5 27 50
5 28 212
5 29 113
5 30 125
5 31 22
5 32 42
5 33 135
5 34 47
5 35 231
5 36 217
5 37 56
5 38 21
5 39 40
5 40 34
5 41 149
5 42 123
5 43 20
5 44 52
5 45 33
5 46 207
5 47 9
5 48 178
5 49 172
5 50 33
5 51 220
5 52 25
5 53 34
5 54 25
5 55 148
5 56 159
5 57 32
5 58 149
5 59 16
5 60 22
5 61 119
5 62 92
5 63 230
5 64 141
5 65 33
5 66 58
5 67 225
5 68 239
5 69 118
5 70 55
5 71 112
5 72 147
5 73 115
5 74 165
5 75 29
5 76 14
5 77 9
5 78 131
5 79 172
5 80 101
6 7 212
6 8 128
6 9 209
6 10 198
6 11 206
6 12 167
6 13 194
6 14 43
6 15 97
6 16 56
6 17 15
6 18 152
6 19 9
6 20 125
6 21 202
6 22 90
6 23 118
6 24 57
6 25 166
6 26 46
6 27 54
6 28 193
6 29 86
6 30 90
6 31 177
6 32 43
6 33 47
6 34 224
6 35 68
6 36 236
6 37 235
6 38 73
6 39 160
6 40 43
6 41 177
6 42 95
6 43 159
6 44 0
6 45 109
6 46 82
6 47 114
6 48 169
6 49 200
6 50 3
6 51 170
6 52 53
6 53 204
6 54 109
6 55 93
6 56 146
6 57 20
6 58 222
6 59 179
6 60 192
6 61 188
6 62 143
6 63 140
6 64 224
6 65 1
6 66 44
6 67 228
6 68 55
6 69 23
6 70 215
6 71 172
6 72 124
6 73 130
6 74 91
6 75 216
6 76 21
6 77 111
6 78 204
6 79 30
6 80 212
7 8 181
7 9 118
7 10 8
7 11 81
7 12 13
7 13 156
7 14 48
7 15 28
7 16 171
7 17 200
7 18 162
7 19 161
7 20 196
7 21 19
7 22 128
7 23 13
7 24 74
7 25 139
7 26 57
7 27 118
7 28 212
7 29 139
7 30 210
7 31 8
7 32 118
7 33 94
7 34 81
7 35 130
7 36 237
7 37 205
7 38 147
7 39 141
7 40 72
7 41 29
7 42 68
7 43 53
7 44 114
7 45 131
7 46 190
7 47 89
7 48 36
7 49 115
7 50 121
7 51 198
7 52 99
7 53 208
7 54 56
7 55 99
7 56 126
7 57 171
7 58 30
7 59 145
7 60 32
7 61 44
7 62 190
7 63 102
7 64 35
7 65 88
7 66 209
7 67 123
7 68 51
7 69 73
7 70 84
7 71 35
7 72 188
7 73 52
7 74 135
7 75 6
7 76 177
7 77 33
7 78 135
7 79 41
7 80 146
8 9 132
8 10 134
8 11 149
8 12 169
8 13 49
8 14 216
8 15 115
8 16 89
8 17 70
8 18 158
8 19 112
8 20 103
8 21 21
8 22 193
8 23 172
8 24 128
8 25 42
8 26 117
8 27 43
8 28 125
8 29 63
8 30 228
8 31 196
8 32 149
8 33 66
8 34 135
8 35 16
8 36 180
8 37 111
8 38 33
8 39 58
8 40 144
8 41 223
8 42 55
8 43 2
8 44 224
8 45 2
8 46 185
8 47 194
8 48 189
8 49 1
8 50 17
8 51 26
8 52 148
8 53 227
8 54 22
8 55 100
8 56 216
8 57 201
8 58 184
8 59 221
8 60 155
8 61 237
8 62 5
8 63 222
8 64 139
8 65 171
8 66 32
8 67 109
8 68 120
8 69 33
8 70 153
8 71 181
8 72 143
8 73 156
8 74 196
8 75 193
8 76 218
8 77 101
8 78 15
8 79 166
8 80 63
9 10 224
9 11 86
9 12 153
9 13 237
9 14 56
9 15 43
9 16 220
9 17 130
9 18 123
9 19 101
9 20 224
9 21 210
9 22 220
9 23 120
9 24 33
9 25 159
9 26 218
9 27 59
9 28 147
9 29 201
9 30 208
9 31 72
9 32 155
9 33 227
9 34 199
9 35 113
9 36 179
9 37 178
9 38 187
9 39 25
9 40 176
9 41 0
9 42 33
9 43 121
9 44 145
9 45 118
9 46 127
9 47 97
9 48 123
9 49 137
9 50 18
9 51 237
9 52 234
9 53 11
9 54 150
9 55 136
9 56 12
9 57 231
9 58 135
9 59 130
9 60 3
9 61 169
9 62 176
9 63 63
9 64 209
9 65 24
9 66 113
9 67 191
9 68 115
9 69 195
9 70 31
9 71 222
9 72 207
9 73 231
9 74 185
9 75 76
9 76 92
9 77 196
9 78 134
9 79 230
9 80 50
10 11 168
10 12 235
10 13 136
10 14 196
10 15 138
10 16 50
10 17 140
10 18 92
10 19 226
10 20 48
10 21 47
10 22 28
10 23 96
10 24 221
10 25 69
10 26 64
10 27 171
10 28 39
10 29 82
10 30 173
10 31 2
10 32 47
10 33 37
10 34 110
10 35 108
10 36 12
10 37 146
10 38 186
10 39 233
10 40 227
10 41 43
10 42 233
10 43 114
10 44 30
10 45 199
10 46 217
10 47 79
10 48 177
10 49 224
10 50 176
10 51 48
10 52 133
10 53 154
10 54 180
10 55 7
10 56 186
10 57 10
10 58 151
10 59 29
10 60 76
10 61 180
10 62 31
10 63 220
10 64 7
10 65 187
10 66 155
10 67 196
10 68 32
10 69 223
10 70 218
10 71 177
10 72 217
10 73 59
10 74 97
10 75 16
10 76 159
10 77 28
10 78 217
10 79 108
10 80 142
11 12 29
11 13 205
11 14 194
11 15 198
11 16 15
11 17 203
11 18 211
11 19 93
11 20 124
11 21 25
11 22 124
11 23 227
11 24 222
11 25 59
11 26 17
11 27 103
11 28 99
11 29 67
11 30 112
11 31 184
11 32 142
11 33 197
11 34 40
11 35 92
11 36 72
11 37 76
11 38 187
11 39 185
11 40 164
11 41 227
11 42 162
11 43 192
11 44 178
11 45 87
11 46 32
11 47 177
11 48 71
11 49 81
11 50 36
11 51 158
11 52 151
11 53 82
11 54 17
11 55 157
11 56 171
11 57 107
11 58 27
11 59 214
11 60 173
11 61 35
11 62 65
11 63 222
11 64 32
11 65 190
11 66 207
11 67 129
11 68 133
11 69 166
11 70 224
11 71 114
11 72 104
11 73 72
11 74 200
11 75 197
11 76 172
11 77 67
11 78 116
11 79 91
11 80 39
12 13 172
12 14 123
12 15 80
12 16 226
12 17 150
12 18 43
12 19 178
12 20 87
12 21 22
12 22 98
12 23 99
12 24 137
12 25 157
12 26 220
12 27 87
12 28 229
12 29 139
12 30 137
12 31 120
12 32 181
12 33 221
12 34 39
12 35 56
12 36 222
12 37 83
12 38 179
12 39 219
12 40 159
12 41 217
12 42 118
12 43 45
12 44 213
12 45 191
12 46 64
12 47 3
12 48 113
12 49 55
12 50 74
12 51 9
12 52 32
12 53 29
12 54 21
12 55 81
12 56 202
12 57 107
12 58 183
12 59 164
12 60 92
12 61 237
12 62 216
12 63 142
12 64 14
12 65 95
12 66 24
12 67 55
12 68 37
12 69 95
12 70 29
12 71 51
12 72 221
12 73 219
12 74 10
12 75 77
12 76 0
12 77 131
12 78 176
12 79 159
12 80 83
13 14 179
13 15 138
13 16 182
13 17 13
13 18 100
13 19 200
13 20 56
13 21 23
13 22 40
13 23 176
13 24 108
13 25 39
13 26 83
13 27 15
13 28 6
13 29 82
13 30 178
13 31 209
13 32 100
13 33 170
13 34 41
13 35 48
13 36 49
13 37 104
13 38 1
13 39 106
13 40 220
13 41 109
13 42 143
13 43 85
13 44 54
13 45 35
13 46 74
13 47 191
13 48 148
13 49 174
13 50 79
13 51 200
13 52 181
13 53 12
13 54 186
13 55 116
13 56 156
13 57 58
13 58 40
13 59 47
13 60 191
13 61 182
13 62 40
13 63 228
13 64 203
13 65 79
13 66 84
13 67 21
13 68 94
13 69 86
13 70 127
13 71 227
13 72 118
13 73 137
13 74 86
13 75 229
13 76 130
13 77 189
13 78 111
13 79 27
13 80 85
14 15 180
14 16 161
14 17 233
14 18 93
14 19 55
14 20 108
14 21 194
14 22 59
14 23 80
14 24 138
14 25 230
14 26 1
14 27 111
14 28 35
14 29 167
14 30 154
14 31 176
14 32 54
14 33 99
14 34 74
14 35 128
14 36 181
14 37 76
14 38 112
14 39 35
14 40 30
14 41 191
14 42 124
14 43 155
14 44 64
14 45 93
14 46 10
14 47 133
14 48 166
14 49 8
14 50 130
14 51 232
14 52 129
14 53 26
14 54 81
14 55 109
14 56 49
14 57 238
14 58 119
14 59 128
14 60 160
14 61 229
14 62 2
14 63 101
14 64 188
14 65 236
14 66 126
14 67 115
14 68 50
14 69 168
14 70 4
14 71 209
14 72 236
14 73 236
14 74 161
14 75 107
14 76 32
14 77 39
14 78 36
14 79 7
14 80 184
15 16 97
15 17 111
15 18 19
15 19 146
15 20 97
15 21 176
15 22 57
15 23 103
15 24 9
15 25 117
15 26 106
15 27 197
15 28 225
15 29 232
15 30 93
15 31 94
15 32 145
15 33 170
15 34 56
15 35 138
15 36 79
15 37 212
15 38 194
15 39 214
15 40 106
15 41 40
15 42 22
15 43 229
15 44 42
15 45 113
15 46 42
15 47 24
15 48 126
15 49 163
15 50 109
15 51 215
15 52 160
15 53 155
15 54 6
15 55 104
15 56 4
15 57 209
15 58 79
15 59 147
15 60 138
15 61 62
15 62 79
15 63 56
15 64 213
15 65 206
15 66 125
15 67 120
15 68 13
15 69 165
15 70 11
15 71 67
15 72 218
15 73 85
15 74 18
15 75 18
15 76 88
15 77 27
15 78 133
15 79 238
15 80 215
16 17 75
16 18 9
16 19 175
16 20 185
16 21 169
16 22 80
16 23 192
16 24 101
16 25 212
16 26 112
16 27 24
16 28 109
16 29 98
16 30 8
16 31 97
16 32 43
16 33 61
16 34 84
16 35 129
16 36 160
16 37 42
16 38 135
16 39 138
16 40 72
16 41 45
16 42 200
16 43 125
16 44 55
16 45 224
16 46 89
16 47 58
16 48 69
16 49 45
16 50 219
16 51 144
16 52 76
16 53 95
16 54 224
16 55 200
16 56 191
16 57 215
16 58 226
16 59 74
16 60 100
16 61 28
16 62 207
16 63 229
16 64 147
16 65 11
16 66 154
16 67 221
16 68 113
16 69 90
16 70 128
16 71 220
16 72 107
16 73 194
16 74 134
16 75 135
16 76 24
16 77 203
16 78 159
16 79 181
16 80 208
17 18 152
17 19 112
17 20 95
17 21 169
17 22 214
17 23 74
17 24 117
17 25 199
17 26 91
17 27 61
17 28 227
17 29 86
17 30 13
17 31 109
17 32 229
17 33 69
17 34 81
17 35 170
17 36 121
17 37 235
17 38 193
17 39 28
17 40 96
17 41 107
17 42 39
17 43 134
17 44 217
17 45 158
17 46 122
17 47 208
17 48 17
17 49 224
17 50 27
17 51 224
17 52 200
17 53 168
17 54 131
17 55 56
17 56 121
17 57 212
17 58 109
17 59 138
17 60 198
17 61 110
17 62 167
17 63 72
17 64 136
17 65 78
17 66 59
17 67 190
17 68 196
17 69 57
17 70 0
17 71 101
17 72 55
17 73 168
17 74 139
17 75 47
17 76 85
17 77 198
17 78 73
17 79 100
17 80 62
18 19 224
18 20 144
18 21 126
18 22 229
18 23 152
18 24 56
18 25 139
18 26 122
18 27 66
18 28 6
18 29 142
18 30 75
18 31 69
18 32 169
18 33 58
18 34 36
18 35 5
18 36 20
18 37 42
18 38 144
18 39 58
18 40 20
18 41 100
18 42 2
18 43 70
18 44 229
18 45 102
18 46 163
18 47 119
18 48 55
18 49 79
18 50 113
18 51 65
18 52 100
18 53 38
18 54 222
18 55 231
18 56 123
18 57 167
18 58 13
18 59 113
18 60 136
18 61 235
18 62 208
18 63 89
18 64 36
18 65 132
18 66 125
18 67 156
18 68 106
18 69 147
18 70 41
18 71 124
18 72 239
18 73 101
18 74 45
18 75 31
18 76 103
18 77 98
18 78 22
18 79 237
18 80 219
19 20 91
19 21 182
19 22 148
19 23 214
19 24 71
19 25 118
19 26 83
19 27 9
19 28 187
19 29 141
19 30 23
19 31 105
19 32 49
19 33 72
19 34 179
19 35 57
19 36 151
19 37 186
19 38 205
19 39 64
19 40 190
19 41 171
19 42 46
19 43 159
19 44 18
19 45 215
19 46 196
19 47 203
19 48 28
19 49 198
19 50 234
19 51 98
19 52 102
19 53 26
19 54 24
19 55 64
19 56 20
19 57 147
19 58 108
19 59 182
19 60 21
19 61 95
19 62 30
19 63 114
19 64 44
19 65 224
19 66 43
19 67 223
19 68 17
19 69 151
19 70 50
19 71 109
19 72 65
19 73 95
19 74 23
19 75 139
19 76 1
19 77 87
19 78 163
19 79 176
19 80 152
20 21 83
20 22 73
20 23 170
20 24 58
20 25 150
20 26 68
20 27 80
20 28 22
20 29 196
20 30 32
20 31 124
20 32 208
20 33 208
20 34 42
20 35 177
20 36 71
20 37 176
20 38 191
20 39 118
20 40 142
20 41 220
20 42 136
20 43 167
20 44 41
20 45 28
20 46 173
20 47 60
20 48 148
20 49 35
20 50 49
20 51 219
20 52 231
20 53 234
20 54 196
20 55 112
20 56 82
20 57 185
20 58 191
20 59 168
20 60 71
20 61 42
20 62 229
20 63 8
20 64 37
20 65 177
20 66 83
20 67 218
20 68 113
20 69 81
20 70 237
20 71 70
20 72 11
20 73 217
20 74 103
20 75 33
20 76 206
20 77 63
20 78 34
20 79 76
20 80 54
21 22 185
21 23 186
21 24 109
21 25 64
21 26 78
21 27 83
21 28 5
21 29 131
21 30 75
21 31 5
21 32 42
21 33 34
21 34 34
21 35 11
21 36 143
21 37 149
21 38 55
21 39 194
21 40 74
21 41 20
21 42 64
21 43 15
21 44 20
21 45 13
21 46 74
21 47 154
21 48 89
21 49 180
21 50 92
21 51 72
21 52 182
21 53 104
21 54 125
21 55 145
21 56 16
21 57 195
21 58 38
21 59 60
21 60 187
21 61 183
21 62 192
21 63 159
21 64 8
21 65 199
21 66 222
21 67 208
21 68 65
21 69 14
21 70 147
21 71 18
21 72 91
21 73 120
21 74 200
21 75 219
21 76 102
21 77 144
21 78 31
21 79 196
21 80 208
22 23 139
22 24 88
22 25 219
22 26 46
22 27 193
22 28 139
22 29 169
22 30 122
22 31 132
22 32 181
22 33 91
22 34 144
22 35 8
22 36 72
22 37 5
22 38 172
22 39 75
22 40 148
22 41 108
22 42 187
22 43 94
22 44 185
22 45 150
22 46 12
22 47 25
22 48 79
22 49 189
22 50 143
22 51 56
22 52 201
22 53 62
22 54 78
22 55 68
22 56 83
22 57 224
22 58 193
22 59 103
22 60 114
22 61 106
22 62 55
22 63 42
22 64 158
22 65 220
22 66 190
22 67 16
22 68 120
22 69 101
22 70 137
22 71 224
22 72 141
22 73 41
22 74 198
22 75 59
22 76 8
22 77 210
22 78 138
22 79 74
22 80 61
23 24 177
23 25 49
23 26 159
23 27 211
23 28 38
23 29 157
23 30 219
23 31 56
23 32 152
23 33 223
23 34 63
23 35 203
23 36 86
23 37 153
23 38 176
23 39 231
23 40 28
23 41 162
23 42 170
23 43 127
23 44 225
23 45 177
23 46 9
23 47 153
23 48 122
23 49 84
23 50 104
23 51 130
23 52 169
23 53 197
23 54 78
23 55 223
23 56 88
23 57 221
23 58 110
23 59 76
23 60 193
23 61 179
23 62 19
23 63 183
23 64 115
23 65 108
23 66 177
23 67 128
23 68 129
23 69 202
23 70 63
23 71 167
23 72 90
23 73 71
23 74 239
23 75 30
23 76 207
23 77 119
23 78 40
23 79 93
23 80 134
24 25 70
24 26 48
24 27 40
24 28 85
24 29 92
24 30 36
24 31 103
24 32 178
24 33 170
24 34 2
24 35 173
24 36 194
24 37 76
24 38 227
24 39 46
24 40 72
24 41 176
24 42 181
24 43 48
24 44 50
24 45 118
24 46 63
24 47 167
24 48 233
24 49 73
24 50 112
24 51 113
24 52 31
24 53 95
24 54 141
24 55 155
24 56 94
24 57 165
24 58 84
24 59 8
24 60 147
24 61 227
24 62 142
24 63 102
24 64 193
24 65 61
24 66 185
24 67 41
24 68 57
24 69 8
24 70 151
24 71 214
24 72 73
24 73 119
24 74 1
24 75 15
24 76 21
24 77 207
24 78 158
24 79 95
24 80 185
25 26 195
25 27 10
25 28 12
25 29 100
25 30 45
25 31 62
25 32 15
25 33 165
25 34 201
25 35 36
25 36 147
25 37 73
25 38 152
25 39 213
25 40 156
25 41 93
25 42 224
25 43 168
25 44 186
25 45 57
25 46 2
25 47 190
25 48 234
25 49 158
25 50 182
25 51 23
25 52 44
25 53 14
25 54 128
25 55 62
25 56 86
25 57 202
25 58 59
25 59 97
25 60 29
25 61 58
25 62 232
25 63 102
25 64 134
25 65 35
25 66 49
25 67 78
25 68 154
25 69 55
25 70 14
25 71 209
25 72 95
25 73 164
25 74 181
25 75 88
25 76 62
25 77 84
25 78 160
25 79 114
25 80 13
26 27 45
26 28 232
26 29 215
26 30 65
26 31 51
26 32 71
26 33 204
26 34 83
26 35 73
26 36 102
26 37 158
26 38 19
26 39 16
26 40 70
26 41 175
26 42 162
26 43 164
26 44 232
26 45 21
26 46 105
26 47 193
26 48 156
26 49 88
26 50 226
26 51 69
26 52 9
26 53 212
26 54 120
26 55 203
26 56 180
26 57 140
26 58 212
26 59 226
26 60 25
26 61 231
26 62 20
26 63 205
26 64 129
26 65 127
26 66 132
26 67 223
26 68 42
26 69 45
26 70 176
26 71 122
26 72 46
26 73 238
26 74 4
26 75 38
26 76 58
26 77 63
26 78 222
26 79 164
26 80 108
27 28 218
27 29 123
27 30 3
27 31 141
27 32 121
27 33 58
27 34 113
27 35 97
27 36 115
27 37 140
27 38 27
27 39 15
27 40 7
27 41 224
27 42 143
27 43 173
27 44 191
27 45 138
27 46 239
27 47 162
27 48 50
27 49 143
27 50 6
27 51 187
27 52 145
27 53 90
27 54 53
27 55 89
27 56 90
27 57 38
27 58 11
27 59 79
27 60 186
27 61 117
27 62 192
27 63 35
27 64 167
27 65 140
27 66 162
27 67 72
27 68 205
27 69 113
27 70 225
27 71 155
27 72 47
27 73 50
27 74 153
27 75 77
27 76 227
27 77 165
27 78 4
27 79 138
27 80 98
28 29 179
28 30 167
28 31 49
28 32 69
28 33 10
28 34 239
28 35 61
28 36 163
28 37 93
28 38 159
28 39 71
28 40 62
28 41 117
28 42 150
28 43 98
28 44 219
28 45 191
28 46 103
28 47 142
28 48 222
28 49 79
28 50 182
28 51 95
28 52 30
28 53 59
28 54 57
28 55 2
28 56 15
28 57 187
28 58 202
28 59 175
28 60 222
28 61 135
28 62 45
28 63 77
28 64 110
28 65 111
28 66 144
28 67 107
28 68 48
28 69 197
28 70 134
28 71 170
28 72 5
28 73 95
28 74 168
28 75 136
28 76 142
28 77 18
28 78 104
28 79 120
28 80 78
29 30 173
29 31 48
29 32 66
29 33 2
29 34 130
29 35 34
29 36 143
29 37 174
29 38 102
29 39 209
29 40 115
29 41 61
29 42 6
29 43 84
29 44 7
29 45 107
29 46 95
29 47 72
29 48 129
29 49 144
29 50 150
29 51 170
29 52 107
29 53 8
29 54 69
29 55 215
29 56 6
29 57 192
29 58 155
29 59 233
29 60 159
29 61 107
29 62 34
29 63 44
29 64 114
29 65 114
29 66 24
29 67 49
29 68 18
29 69 45
29 70 59
29 71 15
29 72 190
29 73 76
29 74 156
29 75 51
29 76 128
29 77 183
29 78 177
29 79 47
29 80 141
30 31 10
30 32 219
30 33 36
30 34 43
30 35 13
30 36 64
30 37 17
30 38 133
30 39 132
30 40 212
30 41 181
30 42 51
30 43 135
30 44 45
30 45 55
30 46 86
30 47 186
30 48 164
30 49 8
30 50 165
30 51 102
30 52 202
30 53 169
30 54 238
30 55 55
30 56 127
30 57 95
30 58 103
30 59 26
30 60 129
30 61 74
30 62 234
30 63 101
30 64 206
30 65 128
30 66 30
30 67 1
30 68 51
30 69 155
30 70 174
30 71 93
30 72 34
30 73 149
30 74 137
30 75 144
30 76 0
30 77 128
30 78 142
30 79 86
30 80 237
31 32 84
31 33 161
31 34 173
31 35 177
31 36 124
31 37 84
31 38 76
31 39 22
31 40 117
31 41 227
31 42 20
31 43 138
31 44 56
31 45 196
31 46 69
31 47 119
31 48 48
31 49 0
31 50 152
31 51 209
31 52 166
31 53 71
31 54 133
31 55 213
31 56 141
31 57 131
31 58 23
31 59 62
31 60 213
31 61 5
31 62 31
31 63 210
31 64 64
31 65 60
31 66 143
31 67 220
31 68 230
31 69 189
31 70 231
31 71 77
31 72 154
31 73 12
31 74 134
31 75 82
31 76 14
31 77 145
31 78 151
31 79 53
31 80 153
32 33 9
32 34 237
32 35 184
32 36 23
32 37 50
32 38 193
32 39 132
32 40 217
32 41 84
32 42 27
32 43 86
32 44 136
32 45 105
32 46 54
32 47 22
32 48 19
32 49 78
32 50 27
32 51 75
32 52 23
32 53 146
32 54 33
32 55 22
32 56 189
32 57 110
32 58 112
32 59 141
32 60 193
32 61 98
32 62 119
32 63 33
32 64 215
32 65 137
32 66 30
32 67 136
32 68 100
32 69 76
32 70 76
32 71 160
32 72 20
32 73 70
32 74 158
32 75 19
32 76 146
32 77 16
32 78 179
32 79 109
32 80 24
33 34 196
33 35 161
33 36 190
33 37 155
33 38 161
33 39 3
33 40 117
33 41 2
33 42 66
33 43 76
33 44 198
33 45 10
33 46 96
33 47 152
33 48 201
33 49 236
33 50 189
33 51 159
33 52 236
33 53 15
33 54 151
33 55 149
33 56 93
33 57 115
33 58 186
33 59 158
33 60 86
33 61 26
33 62 60
33 63 127
33 64 129
33 65 66
33 66 187
33 67 215
33 68 80
33 69 137
33 70 74
33 71 201
33 72 217
33 73 84
33 74 40
33 75 119
33 76 206
33 77 36
33 78 67
33 79 94
33 80 93
34 35 85
34 36 155
34 37 84
34 38 159
34 39 35
34 40 157
34 41 100
34 42 218
34 43 28
34 44 178
34 45 59
34 46 209
34 47 66
34 48 186
34 49 26
34 50 186
34 51 20
34 52 131
34 53 187
34 54 145
34 55 224
34 56 185
34 57 49
34 58 157
34 59 24
34 60 193
34 61 194
34 62 27
34 63 47
34 64 119
34 65 56
34 66 142
34 67 157
34 68 231
34 69 48
34 70 225
34 71 166
34 72 80
34 73 201
34 74 3
34 75 180
34 76 75
34 77 89
34 78 10
34 79 95
34 80 27
35 36 0
35 37 109
35 38 60
35 39 237
35 40 114
35 41 167
35 42 17
35 43 76
35 44 212
35 45 8
35 46 238
35 47 8
35 48 180
35 49 52
35 50 116
35 51 21
35 52 159
35 53 67
35 54 91
35 55 177
35 56 139
35 57 239
35 58 22
35 59 74
35 60 5
35 61 41
35 62 189
35 63 12
35 64 154
35 65 236
35 66 62
35 67 170
35 68 230
35 69 150
35 70 5
35 71 56
35 72 156
35 73 96
35 74 107
35 75 226
35 76 135
35 77 234
35 78 0
35 79 140
35 80 11
36 37 104
36 38 39
36 39 135
36 40 68
36 41 105
36 42 26
36 43 77
36 44 63
36 45 64
36 46 37
36 47 233
36 48 52
36 49 222
36 50 153
36 51 154
36 52 234
36 53 74
36 54 98
36 55 141
36 56 46
36 57 71
36 58 189
36 59 184
36 60 177
36 61 133
36 62 197
36 63 178
36 64 92
36 65 145
36 66 170
36 67 16
36 68 75
36 69 97
36 70 205
36 71 120
36 72 14
36 73 92
36 74 82
36 75 168
36 76 47
36 77 15
36 78 191
36 79 176
36 80 208
37 38 35
37 39 120
37 40 183
37 41 5
37 42 9
37 43 173
37 44 141
37 45 132
37 46 165
37 47 167
37 48 147
37 49 113
37 50 44
37 51 209
37 52 54
37 53 76
37 54 1
37 55 27
37 56 144
37 57 119
37 58 171
37 59 16
37 60 130
37 61 164
37 62 23
37 63 150
37 64 20
37 65 70
37 66 99
37 67 37
37 68 174
37 69 93
37 70 203
37 71 9
37 72 235
37 73 38
37 74 51
37 75 137
37 76 87
37 77 1
37 78 113
37 79 12
37 80 50
38 39 10
38 40 84
38 41 55
38 42 85
38 43 47
38 44 124
38 45 215
38 46 43
38 47 64
38 48 7
38 49 69
38 50 103
38 51 178
38 52 24
38 53 112
38 54 224
38 55 236
38 56 151
38 57 95
38 58 210
38 59 209
38 60 239
38 61 73
38 62 27
38 63 102
38 64 166
38 65 68
38 66 204
38 67 48
38 68 132
38 69 115
38 70 213
38 71 0
38 72 80
38 73 10
38 74 59
38 75 170
38 76 53
38 77 61
38 78 41
38 79 39
38 80 151
39 40 192
39 41 134
39 42 118
39 43 105
39 44 91
39 45 61
39 46 65
39 47 176
39 48 214
39 49 54
39 50 77
39 51 118
39 52 102
39 53 101
39 54 58
39 55 16
39 56 102
39 57 2
39 58 171
39 59 50
39 60 171
39 61 167
39 62 136
39 63 194
39 64 72
39 65 119
39 66 121
39 67 94
39 68 83
39 69 105
39 70 72
39 71 228
39 72 29
39 73 213
39 74 104
39 75 101
39 76 167
39 77 56
39 78 127
39 79 176
39 80 208
40 41 122
40 42 141
40 43 201
40 44 45
40 45 174
40 46 53
40 47 32
40 48 51
40 49 210
40 50 11
40 51 173
40 52 196
40 53 3
40 54 202
40 55 160
40 56 205
40 57 137
40 58 168
40 59 197
40 60 92
40 61 148
40 62 148
40 63 70
40 64 215
40 65 72
40 66 175
40 67 237
40 68 23
40 69 145
40 70 4
40 71 4
40 72 204
40 73 223
40 74 210
40 75 216
40 76 218
40 77 103
40 78 227
40 79 104
40 80 60
41 42 236
41 43 36
41 44 227
41 45 230
41 46 30
41 47 74
41 48 222
41 49 14
41 50 150
41 51 159
41 52 40
41 53 186
41 54 7
41 55 116
41 56 76
41 57 58
41 58 93
41 59 79
41 60 41
41 61 6
41 62 65
41 63 184
41 64 69
41 65 93
41 66 139
41 67 5
41 68 196
41 69 16
41 70 83
41 71 20
41 72 56
41 73 181
41 74 118
41 75 116
41 76 175
41 77 93
41 78 36
41 79 201
41 80 17
42 43 220
42 44 178
42 45 77
42 46 107
42 47 143
42 48 6
42 49 44
42 50 12
42 51 105
42 52 121
42 53 122
42 54 233
42 55 148
42 56 68
42 57 203
42 58 113
42 59 137
42 60 4
42 61 54
42 62 104
42 63 209
42 64 218
42 65 49
42 66 2
42 67 185
42 68 78
42 69 174
42 70 194
42 71 59
42 72 128
42 73 57
42 74 27
42 75 99
42 76 85
42 77 4
42 78 82
42 79 172
42 80 77
43 44 57
43 45 128
43 46 203
43 47 236
43 48 159
43 49 164
43 50 26
43 51 144
43 52 104
43 53 223
43 54 108
43 55 186
43 56 18
43 57 97
43 58 30
43 59 99
43 60 143
43 61 139
43 62 92
43 63 21
43 64 77
43 65 182
43 66 134
43 67 51
43 68 24
43 69 127
43 70 171
43 71 103
43 72 7
43 73 220
43 74 201
43 75 101
43 76 13
43 77 91
43 78 48
43 79 15
43 80 218
44 45 34
44 46 54
44 47 228
44 48 69
44 49 134
44 50 47
44 51 110
44 52 59
44 53 23
44 54 33
44 55 113
44 56 39
44 57 6
44 58 21
44 59 188
44 60 208
44 61 190
44 62 226
44 63 164
44 64 114
44 65 193
44 66 25
44 67 166
44 68 133
44 69 234
44 70 38
44 71 92
44 72 109
44 73 141
44 74 222
44 75 143
44 76 122
44 77 199
44 78 172
44 79 228
44 80 209
45 46 225
45 47 29
45 48 231
45 49 161
45 50 187
45 51 186
45 52 170
45 53 97
45 54 149
45 55 5
45 56 67
45 57 234
45 58 200
45 59 37
45 60 77
45 61 58
45 62 115
45 63 23
45 64 179
45 65 174
45 66 230
45 67 149
45 68 124
45 69 115
45 70 154
45 71 175
45 72 112
45 73 212
45 74 160
45 75 182
45 76 43
45 77 193
45 78 236
45 79 211
45 80 80
46 47 196
46 48 41
46 49 98
46 50 219
46 51 109
46 52 93
46 53 62
46 54 91
46 55 81
46 56 123
46 57 129
46 58 214
46 59 100
46 60 35
46 61 45
46 62 166
46 63 164
46 64 43
46 65 87
46 66 1
46 67 51
46 68 26
46 69 69
46 70 193
46 71 188
46 72 28
46 73 215
46 74 232
46 75 221
46 76 205
46 77 88
46 78 126
46 79 161
46 80 6
47 48 94
47 49 67
47 50 16
47 51 70
47 52 11
47 53 163
47 54 157
47 55 159
47 56 3
47 57 47
47 58 31
47 59 89
47 60 70
47 61 16
47 62 122
47 63 175
47 64 221
47 65 237
47 66 46
47 67 169
47 68 9
47 69 78
47 70 154
47 71 70
47 72 190
47 73 99
47 74 162
47 75 76
47 76 187
47 77 199
47 78 182
47 79 10
47 80 170
48 49 119
48 50 23
48 51 19
48 52 224
48 53 232
48 54 216
48 55 183
48 56 141
48 57 104
48 58 226
48 59 238
48 60 74
48 61 128
48 62 222
48 63 137
48 64 80
48 65 71
48 66 165
48 67 66
48 68 124
48 69 141
48 70 186
48 71 43
48 72 220
48 73 217
48 74 140
48 75 88
48 76 209
48 77 201
48 78 166
48 79 162
48 80 73
49 50 8
49 51 141
49 52 196
49 53 158
49 54 145
49 55 21
49 56 55
49 57 185
49 58 201
49 59 23
49 60 118
49 61 128
49 62 234
49 63 95
49 64 207
49 65 155
49 66 29
49 67 132
49 68 93
49 69 110
49 70 21
49 71 205
49 72 48
49 73 104
49 74 35
49 75 176
49 76 234
49 77 21
49 78 176
49 79 229
49 80 49
50 51 26
50 52 80
50 53 126
50 54 114
50 55 148
50 56 141
50 57 33
50 58 117
50 59 37
50 60 103
50 61 176
50 62 40
50 63 217
50 64 39
50 65 194
50 66 163
50 67 56
50 68 175
50 69 102
50 70 22
50 71 170
50 72 221
50 73 51
50 74 177
50 75 62
50 76 60
50 77 171
50 78 167
50 79 159
50 80 60
51 52 207
51 53 93
51 54 195
51 55 160
51 56 70
51 57 169
51 58 232
51 59 18
51 60 232
51 61 208
51 62 188
51 63 111
51 64 18
51 65 55
51 66 70
51 67 176
51 68 126
51 69 159
51 70 35
51 71 24
51 72 160
51 73 165
51 74 103
51 75 214
51 76 5
51 77 41
51 78 50
51 79 81
51 80 155
52 53 193
52 54 191
52 55 97
52 56 98
52 57 35
52 58 100
52 59 29
52 60 156
52 61 35
52 62 56
52 63 174
52 64 184
52 65 2
52 66 143
52 67 67
52 68 207
52 69 41
52 70 124
52 71 179
52 72 182
52 73 34
52 74 151
52 75 150
52 76 201
52 77 232
52 78 79
52 79 138
52 80 189
53 54 86
53 55 22
53 56 164
53 57 60
53 58 135
53 59 109
53 60 28
53 61 191
53 62 228
53 63 23
53 64 90
53 65 131
53 66 80
53 67 186
53 68 215
53 69 154
53 70 64
53 71 205
53 72 8
53 73 143
53 74 222
53 75 26
53 76 46
53 77 228
53 78 183
53 79 154
53 80 203
54 55 42
54 56 71
54 57 194
54 58 207
54 59 40
54 60 203
54 61 4
54 62 102
54 63 118
54 64 169
54 65 94
54 66 36
54 67 235
54 68 229
54 69 21
54 70 0
54 71 3
54 72 86
54 73 56
54 74 86
54 75 111
54 76 109
54 77 44
54 78 225
54 79 203
54 80 30
55 56 140
55 57 89
55 58 226
55 59 52
55 60 78
55 61 143
55 62 143
55 63 79
55 64 150
55 65 208
55 66 106
55 67 82
55 68 62
55 69 237
55 70 164
55 71 236
55 72 8
55 73 29
55 74 13
55 75 59
55 76 177
55 77 106
55 78 145
55 79 75
55 80 19
56 57 5
56 58 44
56 59 207
56 60 56
56 61 131
56 62 139
56 63 77
56 64 196
56 65 238
56 66 175
56 67 104
56 68 102
56 69 233
56 70 12
56 71 185
56 72 109
56 73 129
56 74 127
56 75 2
56 76 231
56 77 107
56 78 140
56 79 50
56 80 75
57 58 89
57 59 40
57 60 225
57 61 99
57 62 32
57 63 70
57 64 111
57 65 1
57 66 52
57 67 67
57 68 55
57 69 135
57 70 17
57 71 178
57 72 59
57 73 34
57 74 226
57 75 170
57 76 128
57 77 66
57 78 106
57 79 28
57 80 196
58 59 172
58 60 14
58 61 237
58 62 200
58 63 100
58 64 206
58 65 199
58 66 2
58 67 39
58 68 165
58 69 23
58 70 3
58 71 14
58 72 0
58 73 80
58 74 5
58 75 219
58 76 192
58 77 203
58 78 109
58 79 153
58 80 6
59 60 61
59 61 96
59 62 135
59 63 110
59 64 36
59 65 204
59 66 92
59 67 117
59 68 133
59 69 182
59 70 224
59 71 169
59 72 187
59 73 185
59 74 186
59 75 218
59 76 58
59 77 218
59 78 41
59 79 62
59 80 123
60 61 233
60 62 22
60 63 124
60 64 29
60 65 131
60 66 169
60 67 113
60 68 112
60 69 116
60 70 107
60 71 40
60 72 170
60 73 58
60 74 5
60 75 227
60 76 161
60 77 119
60 78 210
60 79 127
60 80 193
61 62 58
61 63 11
61 64 91
61 65 200
61 66 137
61 67 144
61 68 162
61 69 78
61 70 200
61 71 48
61 72 216
61 73 178
61 74 88
61 75 8
61 76 58
61 77 138
61 78 235
61 79 92
61 80 83
62 63 147
62 64 56
62 65 26
62 66 195
62 67 217
62 68 184
62 69 13
62 70 3
62 71 41
62 72 180
62 73 93
62 74 222
62 75 131
62 76 224
62 77 178
62 78 65
62 79 175
62 80 188
63 64 53
63 65 68
63 66 106
63 67 218
63 68 5
63 69 128
63 70 207
63 71 87
63 72 17
63 73 112
63 74 214
63 75 63
63 76 4
63 77 9
63 78 216
63 79 50
63 80 4
64 65 27
64 66 86
64 67 141
64 68 12
64 69 122
64 70 223
64 71 169
64 72 172
64 73 136
64 74 187
64 75 34
64 76 88
64 77 99
64 78 64
64 79 19
64 80 75
65 66 80
65 67 189
65 68 101
65 69 223
65 70 81
65 71 233
65 72 32
65 73 86
65 74 64
65 75 4
65 76 17
65 77 119
65 78 127
65 79 10
65 80 71
66 67 181
66 68 60
66 69 83
66 70 68
66 71 97
66 72 196
66 73 199
66 74 64
66 75 1
66 76 152
66 77 137
66 78 41
66 79 194
66 80 239
67 68 124
67 69 123
67 70 80
67 71 169
67 72 13
67 73 64
67 74 199
67 75 53
67 76 200
67 77 79
67 78 153
67 79 195
67 80 108
68 69 129
68 70 33
68 71 111
68 72 122
68 73 0
68 74 27
68 75 135
68 76 184
68 77 140
68 78 125
68 79 125
68 80 223
69 70 80
69 71 55
69 72 114
69 73 23
69 74 154
69 75 38
69 76 112
69 77 101
69 78 30
69 79 28
69 80 127
70 71 113
70 72 98
70 73 29
70 74 61
70 75 31
70 76 75
70 77 55
70 78 223
70 79 224
70 80 211
71 72 122
71 73 215
71 74 77
71 75 238
71 76 58
71 77 60
71 78 21
71 79 41
71 80 22
72 73 163
72 74 151
72 75 157
72 76 191
72 77 52
72 78 218
72 79 172
72 80 72
73 74 194
73 75 22
73 76 163
73 77 169
73 78 157
73 79 96
73 80 137
74 75 74
74 76 189
74 77 155
74 78 123
74 79 130
74 80 43
75 76 199
75 77 218
75 78 110
75 79 3
75 80 146
76 77 185
76 78 178
76 79 234
76 80 125
77 78 50
77 79 113
77 80 83
78 79 232
78 80 83
79 80 73
